15236
1 1 1 1 1 1 1 1 1 1
5 9 3 6 6 2 4 3 9 0 5 3 3 6 0 3 6 0 0 2 5 3 3 8 5 4 7 9 7 7 9 2 3 8 6 2 4 3 1 7 6 3 3 8 6 2 4 7 1 7 8 9 3 2 8 5 1 5 4 4 1 1 3 6 3 3 0 9 0 2 7 3 3 8 4 4 7 2 7 7 8 9 3 2 8 5 5 3 2 0 1 7 7 1 9 5 6 0 0 4